# individual data for particle 0 out of 1
# column 1: time
# columns 2-4: centre position
# columns 5-7: centre velocity
# columns 8-10: angular momentum
# columns 11-13: angular velocity
# columns 14-16: total force
# columns 17-19: total torque
# column 20: total energy
# column 21: strain energy
# column 22: bending energy
# column 23: surface energy
# column 24: volume energy
# column 25: interaction energy
# columns 26-34: stresslet
# column 35: volume
# column 36: surface
# column 37: minimum area deviation
# column 38: maximum area deviation
# column 39: minimum edge length
# column 40: maximum edge length
# column 41: maximum normal-normal angle
time x y z v_x v_y v_z L_x L_y L_z omega_x omega_y omega_z F_x F_y F_z T_x T_y T_z E_tot E_S E_B E_A E_V E_int sigma_xx sigma_xy sigma_xz sigma_yx sigma_yy sigma_yz sigma_zx sigma_zy sigma_zz volume surface areaDevMin areaDevMax edgeMin edgeMax angleMax
0 15 15 15 0 0 0 0 0 0 0 0 0 0 0 0 0 0 0 1.196e-313 2.393e-314 2.393e-314 2.393e-314 2.393e-314 2.393e-314 0 0 0 0 0 0 0 0 0 1755 704.2 -5.107e-15 5.551e-15 0.922 1.082 5.35 
100 14.9999965583098 14.9507239137737 14.9997836370238 -4.05e-07 -0.001319 -5.96e-06 -12.92 -0.0002951 0.002155 -0.000489 -1.083e-08 8.148e-08 0 0 0 0 0 0 0.0004437 0.0004435 0 2.25e-07 0 0 0.01321 1.056e-05 -1.682e-05 1.056e-05 0.01489 0.04907 -1.682e-05 0.04907 0.01187 1755 704.2 -0.01924 0.02028 0.9119 1.089 5.489 
200 14.999968704378 14.7563156839583 14.9983983478375 -7.524e-08 -0.002432 -1.239e-05 -26.01 -0.001323 0.002736 -0.0009845 -5.041e-08 1.029e-07 0 0 0 0 0 0 0.003437 0.003432 0 4.934e-06 0 0 0.06495 2.792e-05 -4.416e-06 2.792e-05 0.08321 0.1532 -4.416e-06 0.1532 0.04894 1755 704.3 -0.04207 0.04611 0.8986 1.1 5.731 
300 14.9999514503564 14.4834221153504 14.9982643904094 -1.341e-07 -0.002955 2.794e-05 -31.83 0.0001124 -0.002363 -0.001204 4.611e-09 -8.888e-08 0 0 0 0 0 0 0.009141 0.009116 0 2.43e-05 0 0 0.1472 5.393e-05 4.497e-05 5.393e-05 0.2099 0.2576 4.497e-05 0.2576 0.09102 1756 704.4 -0.05631 0.06323 0.8889 1.112 5.812 
400 14.999926601911 14.1730077465819 15.0049096011235 1.229e-07 -0.003222 8.995e-05 -34.17 -0.004332 -0.005084 -0.001291 -1.655e-07 -1.951e-07 0 0 0 0 0 0 0.01651 0.01644 0 6.658e-05 0 0 0.2462 3.263e-05 3.286e-05 3.263e-05 0.3778 0.344 3.286e-05 0.344 0.1275 1756 704.5 -0.0697 0.0761 0.8839 1.124 5.825 
500 14.9998960478564 13.8418594463774 15.0124634910731 -2.851e-07 -0.003379 6.73e-05 -34.84 0.0009376 -0.0004164 -0.001315 3.66e-08 -1.88e-08 0 0 0 0 0 0 0.02446 0.02433 0 0.0001383 0 0 0.3553 6.128e-05 3.777e-05 6.128e-05 0.572 0.4075 3.777e-05 0.4075 0.1602 1756 704.7 -0.07818 0.09261 0.8762 1.134 5.963 
600 14.9998786124994 13.4981279432718 15.017630392209 -1.581e-07 -0.00348 5.922e-05 -34.66 -0.001777 -0.001363 -0.001307 -6.705e-08 -5.675e-08 0 0 0 0 0 0 0.03184 0.0316 0 0.0002365 0 0 0.4622 7.399e-05 2.719e-05 7.399e-05 0.7707 0.443 2.719e-05 0.443 0.187 1756 704.8 -0.08578 0.102 0.8691 1.142 6.153 
700 14.9998763202527 13.1470614640709 15.0256689458133 3.508e-07 -0.003531 8.472e-05 -34.37 -0.00297 -0.004078 -0.001295 -1.155e-07 -1.6e-07 0 0 0 0 0 0 0.03844 0.03806 0 0.0003783 0 0 0.5772 8.46e-05 2.242e-05 8.46e-05 0.9779 0.4571 2.242e-05 0.4571 0.2266 1756 704.9 -0.0901 0.09785 0.8599 1.143 6.421 
800 14.9998822010132 12.7912195376012 15.0328097202178 1.19e-07 -0.003576 5.858e-05 -34.02 0.0001616 -0.001115 -0.00128 5.911e-09 -4.76e-08 0 0 0 0 0 0 0.04404 0.0435 0 0.0005409 0 0 0.6837 8.146e-05 -5.289e-06 8.146e-05 1.168 0.4536 -5.289e-06 0.4536 0.2632 1756 705.1 -0.09417 0.09834 0.8519 1.146 6.7 
900 14.9998816654051 12.4307658104975 15.0382882903857 3.065e-07 -0.003611 6.251e-05 -33.9 0.001782 -0.002743 -0.001275 6.799e-08 -1.06e-07 0 0 0 0 0 0 0.04827 0.04755 0 0.0007272 0 0 0.7834 8.526e-05 5.621e-06 8.526e-05 1.344 0.4334 5.621e-06 0.4334 0.3042 1756 705.2 -0.09591 0.09809 0.8474 1.149 6.933 
1000 14.9999070604901 12.0676729321474 15.0454453227451 2.216e-08 -0.003626 6.705e-05 -33.48 -0.001685 -0.00378 -0.001258 -6.688e-08 -1.465e-07 0 0 0 0 0 0 0.05149 0.05056 0 0.0009312 0 0 0.8769 0.000137 3.332e-05 0.000137 1.501 0.4042 3.332e-05 0.4042 0.3502 1756 705.4 -0.09846 0.1035 0.8463 1.155 7.075 
1100 14.9999180161266 11.704123243483 15.0516201236985 -1.689e-07 -0.003629 6.879e-05 -33.25 -0.002289 -0.002352 -0.001249 -9.091e-08 -9.491e-08 0 0 0 0 0 0 0.05358 0.05246 0 0.001116 0 0 0.9521 0.0001667 5.551e-06 0.0001667 1.626 0.368 5.551e-06 0.368 0.3885 1756 705.5 -0.09878 0.1015 0.8487 1.156 6.973 
1200 14.9999165631838 11.3404085379126 15.0581788419386 4.619e-07 -0.003636 6.412e-05 -33.1 -0.001501 -0.002442 -0.001243 -5.884e-08 -9.872e-08 0 0 0 0 0 0 0.05458 0.0533 0 0.001279 0 0 1.011 0.0001959 2.002e-05 0.0001959 1.722 0.3271 2.002e-05 0.3271 0.4235 1756 705.6 -0.1017 0.1048 0.8556 1.157 7.052 
1300 14.9999602931788 10.9762355392727 15.0653628274036 -2.232e-07 -0.003633 6.545e-05 -32.66 -0.004973 -0.001676 -0.001226 -1.951e-07 -7.349e-08 0 0 0 0 0 0 0.0546 0.05318 0 0.001413 0 0 1.054 0.0002372 -5.623e-06 0.0002372 1.788 0.2863 -5.623e-06 0.2863 0.4555 1756 705.6 -0.09887 0.1069 0.8544 1.158 7.171 
1400 14.9999287861213 10.6137501357165 15.0718570770017 -2.568e-07 -0.003627 5.828e-05 -32.77 -0.000456 -0.0006872 -0.00123 -1.853e-08 -3.609e-08 0 0 0 0 0 0 0.0538 0.0523 0 0.001494 0 0 1.076 0.0002541 -3.782e-07 0.0002541 1.821 0.2461 -3.782e-07 0.2461 0.4764 1756 705.7 -0.09709 0.1084 0.8539 1.167 7.002 
1500 14.9999183413178 10.2506356197947 15.0789768920536 -1.946e-07 -0.003617 8.202e-05 -33 0.0005899 -0.0029 -0.001238 2.118e-08 -1.173e-07 0 0 0 0 0 0 0.05214 0.05059 0 0.001546 0 0 1.088 0.0002325 -2.646e-05 0.0002325 1.831 0.2076 -2.646e-05 0.2076 0.4958 1756 705.7 -0.09981 0.1088 0.856 1.172 6.695 
1600 14.9999413494018 9.88918501833489 15.0868969955183 7.492e-07 -0.003609 7.695e-05 -32.95 -0.002092 -0.005122 -0.001236 -8.519e-08 -1.993e-07 0 0 0 0 0 0 0.05008 0.04854 0 0.001536 0 0 1.077 0.0002421 -0.0001147 0.0002421 1.812 0.175 -0.0001147 0.175 0.5032 1756 705.7 -0.09769 0.1152 0.8582 1.17 6.711 
1700 14.9999626237437 9.52878641479372 15.0941268149678 -3.997e-07 -0.003599 7.945e-05 -33.33 -0.003152 -0.002823 -0.001251 -1.264e-07 -1.144e-07 0 0 0 0 0 0 0.04756 0.04606 0 0.001503 0 0 1.06 0.000252 -7.046e-05 0.000252 1.775 0.1478 -7.046e-05 0.1478 0.5084 1757 705.7 -0.09739 0.1203 0.8569 1.165 6.614 
1800 14.9999556654139 9.16919822892812 15.1028746800886 1.142e-07 -0.003587 8.891e-05 -33.59 -0.0008002 -0.00109 -0.001261 -3.528e-08 -5.208e-08 0 0 0 0 0 0 0.04483 0.0434 0 0.001437 0 0 1.031 0.0003014 -9.162e-06 0.0003014 1.722 0.1255 -9.162e-06 0.1255 0.5069 1757 705.6 -0.09551 0.1245 0.8616 1.16 6.51 
1900 14.999972196653 8.81197981970947 15.1115320062228 5.372e-07 -0.003553 7.783e-05 -33.87 -0.002321 -0.004199 -0.001271 -9.283e-08 -1.658e-07 0 0 0 0 0 0 0.04218 0.04083 0 0.001352 0 0 0.9937 0.0003482 -2.593e-05 0.0003482 1.659 0.1128 -2.593e-05 0.1128 0.5022 1757 705.6 -0.09385 0.1272 0.8677 1.154 6.436 
2000 15.0000052314441 8.45624480466255 15.1171557883772 -1.561e-07 -0.003539 7.39e-05 -34.45 0.001788 -0.002075 -0.001293 6.423e-08 -8.784e-08 0 0 0 0 0 0 0.03943 0.03815 0 0.001276 0 0 0.9599 0.0003201 -3.899e-05 0.0003201 1.596 0.1046 -3.899e-05 0.1046 0.5005 1758 705.6 -0.09684 0.1209 0.8721 1.149 6.456 
