# individual data for particle 0 out of 1
# column 1: time
# columns 2-4: centre position
# columns 5-7: centre velocity
# columns 8-10: angular momentum
# columns 11-13: angular velocity
# columns 14-16: total force
# columns 17-19: total torque
# column 20: total energy
# column 21: strain energy
# column 22: bending energy
# column 23: surface energy
# column 24: volume energy
# column 25: interaction energy
# columns 26-34: stresslet
# column 35: volume
# column 36: surface
# column 37: minimum area deviation
# column 38: maximum area deviation
# column 39: minimum edge length
# column 40: maximum edge length
# column 41: maximum normal-normal angle
time x y z v_x v_y v_z L_x L_y L_z omega_x omega_y omega_z F_x F_y F_z T_x T_y T_z E_tot E_S E_B E_A E_V E_int sigma_xx sigma_xy sigma_xz sigma_yx sigma_yy sigma_yz sigma_zx sigma_zy sigma_zz volume surface areaDevMin areaDevMax edgeMin edgeMax angleMax
0 15 15 15 0 0 0 0 0 0 0 0 0 0 0 0 0 0 0 1.061e-313 2.122e-314 2.122e-314 2.122e-314 2.122e-314 2.122e-314 0 0 0 0 0 0 0 0 0 1755 704.2 -5.107e-15 5.551e-15 0.922 1.082 5.35 
100 15.0199472055254 15.0000002077992 15.0000587104254 0.0007694 -5.526e-08 3.032e-06 0.000224 2.936 0.001552 8.458e-09 0.0001112 5.878e-08 0 0 0 0 0 0 4.247e-06 4.247e-06 0 5.9e-10 0 0 0.0006258 -3.163e-07 0.0011 -3.163e-07 0.0006173 -4.468e-07 0.0011 -4.468e-07 0.0006161 1755 704.2 -0.005883 0.00605 0.9173 1.086 5.385 
200 15.1893722746843 14.9999952656844 15.0012148990321 0.002685 -2.023e-08 1.882e-05 -0.0002646 7.201 0.003169 -1.02e-08 0.0002727 1.201e-07 0 0 0 0 0 0 4.849e-05 4.845e-05 0 3.578e-08 0 0 0.005016 -1.573e-06 0.004372 -1.573e-06 0.00486 -2.692e-06 0.004372 -2.692e-06 0.004716 1755 704.2 -0.0192 0.02035 0.9091 1.096 5.467 
300 15.5505088597339 14.9999932334068 15.0035762118075 0.004524 2.59e-08 1.925e-05 0.000627 9.415 0.003642 2.326e-08 0.0003565 1.381e-07 0 0 0 0 0 0 0.0001498 0.0001497 0 1.807e-07 0 0 0.01164 -2.291e-06 0.008374 -2.291e-06 0.01102 -3.633e-06 0.008374 -3.633e-06 0.01043 1755 704.2 -0.03135 0.03344 0.9004 1.104 5.538 
400 16.0829310774474 14.9999945062785 15.004831812013 0.0061 1.213e-07 1.914e-05 0.001495 10.54 0.003299 5.53e-08 0.0003991 1.255e-07 0 0 0 0 0 0 0.0003086 0.000308 0 6.135e-07 0 0 0.02184 -3.759e-06 0.0127 -3.759e-06 0.02039 -5.962e-06 0.0127 -5.962e-06 0.01897 1755 704.2 -0.04233 0.04595 0.8925 1.111 5.626 
500 16.7601202790176 14.9999930879848 15.007169636075 0.007419 -1.595e-08 1.075e-05 0.0005748 11.08 0.003453 2.008e-08 0.0004196 1.313e-07 0 0 0 0 0 0 0.0005187 0.0005173 0 1.412e-06 0 0 0.03377 -5.988e-06 0.0171 -5.988e-06 0.03109 -8.104e-06 0.0171 -8.104e-06 0.02836 1755 704.3 -0.05217 0.05689 0.8863 1.117 5.678 
600 17.5581523770915 14.9999914732153 15.0087802286323 0.008518 -6.638e-08 1.667e-05 0.000431 11.38 0.004062 1.449e-08 0.0004309 1.545e-07 0 0 0 0 0 0 0.0007765 0.0007736 0 2.893e-06 0 0 0.04894 -8.452e-06 0.0215 -8.452e-06 0.04463 -1.01e-05 0.0215 -1.01e-05 0.04011 1755 704.3 -0.06099 0.06523 0.8814 1.121 5.691 
700 18.4562429218744 14.9999922243716 15.0100106594473 0.009426 -2.789e-08 1.98e-05 0.0002456 11.62 0.006256 7.519e-09 0.0004396 2.375e-07 0 0 0 0 0 0 0.001076 0.001071 0 5.186e-06 0 0 0.06619 -1.157e-05 0.0258 -1.157e-05 0.05987 -1.171e-05 0.0258 -1.171e-05 0.05317 1755 704.3 -0.06945 0.07265 0.8761 1.125 5.687 
800 19.4368416666159 14.9999883144743 15.0110286103971 0.01017 -8.002e-08 1.515e-05 0.0006254 11.73 0.003507 2.049e-08 0.0004438 1.34e-07 0 0 0 0 0 0 0.001416 0.001407 0 8.52e-06 0 0 0.08555 -1.346e-05 0.02995 -1.346e-05 0.07689 -1.344e-05 0.02995 -1.344e-05 0.06756 1755 704.3 -0.07732 0.08159 0.8711 1.131 5.683 
900 20.4854077468492 14.9999904850027 15.0118868901434 0.01079 -1.875e-08 1.445e-05 0.0004725 11.78 0.003507 1.439e-08 0.0004456 1.341e-07 0 0 0 0 0 0 0.001793 0.00178 0 1.325e-05 0 0 0.1074 -1.649e-05 0.03394 -1.649e-05 0.09597 -1.429e-05 0.03394 -1.429e-05 0.08363 1755 704.4 -0.08474 0.09292 0.8658 1.138 5.705 
1000 21.5901325431528 14.9999912687536 15.0126529973577 0.0113 -4.775e-08 9.692e-06 0.0004181 11.84 0.003634 1.184e-08 0.0004478 1.389e-07 0 0 0 0 0 0 0.002198 0.002179 0 1.912e-05 0 0 0.1299 -1.895e-05 0.03768 -1.895e-05 0.1155 -1.435e-05 0.03768 -1.435e-05 0.09975 1755 704.4 -0.09103 0.1046 0.8607 1.143 5.733 
1100 22.741135192435 14.9999904364164 15.0132889314133 0.01171 2.251e-08 5.017e-06 0.0008956 11.89 0.003232 2.976e-08 0.0004496 1.244e-07 0 0 0 0 0 0 0.002633 0.002605 0 2.724e-05 0 0 0.1557 -2.115e-05 0.04119 -2.115e-05 0.1378 -1.416e-05 0.04119 -1.416e-05 0.1184 1755 704.4 -0.09864 0.1143 0.8564 1.148 5.759 
1200 23.9300847731952 14.9999884351486 15.0148590298659 0.01206 -5.925e-09 1.672e-05 0.0008905 12.02 0.001528 2.844e-08 0.0004545 6.063e-08 0 0 0 0 0 0 0.003091 0.003054 0 3.696e-05 0 0 0.1822 -2.259e-05 0.04444 -2.259e-05 0.1606 -1.341e-05 0.04444 -1.341e-05 0.1372 1755 704.4 -0.1048 0.1216 0.8525 1.151 5.782 
1300 25.1504598303919 14.9999843719918 15.0140995889041 0.01234 -9.527e-08 -1.887e-06 0.0001396 11.93 0.002465 5.424e-10 0.0004511 9.55e-08 0 0 0 0 0 0 0.003582 0.003533 0 4.886e-05 0 0 0.2104 -2.601e-05 0.04748 -2.601e-05 0.1848 -1.222e-05 0.04748 -1.222e-05 0.157 1755 704.5 -0.1107 0.1263 0.8487 1.153 5.83 
1400 26.3966134844865 14.9999802769179 15.0137521669029 0.01258 -2.778e-08 4.173e-06 0.0002186 11.9 0.0002573 2.38e-09 0.0004497 1.306e-08 0 0 0 0 0 0 0.004074 0.004012 0 6.237e-05 0 0 0.2387 -2.709e-05 0.05008 -2.709e-05 0.2089 -1.114e-05 0.05008 -1.114e-05 0.1765 1755 704.5 -0.117 0.1319 0.8443 1.154 5.862 
1500 27.6637665283278 14.9999755975485 15.0137194202627 0.01277 -1.284e-07 -7.289e-07 0.0004916 11.8 0.0002949 1.306e-08 0.0004459 1.487e-08 0 0 0 0 0 0 0.004573 0.004495 0 7.864e-05 0 0 0.2687 -2.843e-05 0.05236 -2.843e-05 0.2345 -8.91e-06 0.05236 -8.91e-06 0.1974 1755 704.5 -0.123 0.1379 0.8398 1.155 5.899 
1600 28.9484616816604 14.9999750836195 15.0133804698828 0.01293 6.248e-08 -5.721e-06 1.216e-05 11.74 0.0003206 -4.991e-09 0.0004437 1.576e-08 0 0 0 0 0 0 0.005079 0.004981 0 9.754e-05 0 0 0.2999 -2.986e-05 0.05431 -2.986e-05 0.2611 -5.351e-06 0.05431 -5.351e-06 0.2191 1755 704.6 -0.1283 0.1449 0.8359 1.154 5.944 
1700 30.2476202774774 14.9999726456983 15.0131672961917 0.01305 -7.522e-08 5.575e-06 0.001776 11.72 0.0003145 6.307e-08 0.0004426 1.715e-08 0 0 0 0 0 0 0.005586 0.005469 0 0.0001173 0 0 0.33 -3.074e-05 0.05588 -3.074e-05 0.2864 -2.774e-06 0.05588 -2.774e-06 0.2394 1755 704.6 -0.1334 0.1525 0.8322 1.153 5.969 
1800 31.5585568407203 14.9999651144853 15.0133036421432 0.01316 -2.806e-08 3.884e-06 0.0004606 11.68 0.0006362 1.303e-08 0.0004412 2.844e-08 0 0 0 0 0 0 0.00609 0.005949 0 0.0001407 0 0 0.3619 -3.067e-05 0.0571 -3.067e-05 0.3134 -1.969e-07 0.0571 -1.969e-07 0.2614 1755 704.7 -0.138 0.1576 0.829 1.15 6.013 
1900 32.8794761897276 14.9999667581191 15.0131642207811 0.01325 -4.71e-08 -2.229e-06 0.0006277 11.65 0.0008778 1.995e-08 0.0004398 3.775e-08 0 0 0 0 0 0 0.006588 0.006422 0 0.0001652 0 0 0.393 -2.978e-05 0.05792 -2.978e-05 0.3396 2.546e-06 0.05792 2.546e-06 0.2824 1755 704.7 -0.1426 0.1605 0.8257 1.149 6.061 
2000 34.2085303968409 14.999967033391 15.0129767520561 0.01333 5.926e-09 4.55e-06 0.0004217 11.58 0.0003812 1.193e-08 0.0004371 1.928e-08 0 0 0 0 0 0 0.007077 0.006884 0 0.0001926 0 0 0.4249 -2.993e-05 0.0584 -2.993e-05 0.3665 6.478e-06 0.0584 6.478e-06 0.3042 1755 704.7 -0.1469 0.1615 0.8229 1.153 6.138 
